Nodes = {"Leipzig", "Hamburg", "Hannover", "Stuttgart", "Muenchen", "Koeln", "Erlangen", "Berlin", "Essen", "Frankfurt", "IP"};
Arcs = {<"Leipzig","Hamburg",22,0>, <"Leipzig","Hannover",22,0>, <"Leipzig","Stuttgart",22,0>, <"Leipzig","Muenchen",22,0>, <"Leipzig","Koeln",22,0>, <"Leipzig","Erlangen",22,0>, <"Leipzig","Berlin",22,0>, <"Leipzig","Essen",22,0>, <"Leipzig","Frankfurt",22,0>, <"Leipzig","IP",22,6>, <"Hamburg","Leipzig",22,0>, <"Hamburg","Hannover",22,0>, <"Hamburg","Stuttgart",22,0>, <"Hamburg","Muenchen",22,0>, <"Hamburg","Koeln",22,0>, <"Hamburg","Erlangen",22,0>, <"Hamburg","Berlin",22,0>, <"Hamburg","Essen",22,0>, <"Hamburg","Frankfurt",22,0>, <"Hamburg","IP",22,3>, <"Hannover","Leipzig",22,0>, <"Hannover","Hamburg",22,0>, <"Hannover","Stuttgart",22,0>, <"Hannover","Muenchen",22,0>, <"Hannover","Koeln",22,0>, <"Hannover","Erlangen",22,0>, <"Hannover","Berlin",22,0>, <"Hannover","Essen",22,0>, <"Hannover","Frankfurt",22,0>, <"Hannover","IP",22,0>, <"Stuttgart","Leipzig",22,0>, <"Stuttgart","Hamburg",22,0>, <"Stuttgart","Hannover",22,0>, <"Stuttgart","Muenchen",22,0>, <"Stuttgart","Koeln",22,0>, <"Stuttgart","Erlangen",22,0>, <"Stuttgart","Berlin",22,0>, <"Stuttgart","Essen",22,0>, <"Stuttgart","Frankfurt",22,0>, <"Stuttgart","IP",22,5>, <"Muenchen","Leipzig",22,0>, <"Muenchen","Hamburg",22,0>, <"Muenchen","Hannover",22,0>, <"Muenchen","Stuttgart",22,0>, <"Muenchen","Koeln",22,0>, <"Muenchen","Erlangen",22,0>, <"Muenchen","Berlin",22,0>, <"Muenchen","Essen",22,0>, <"Muenchen","Frankfurt",22,0>, <"Muenchen","IP",22,7>, <"Koeln","Leipzig",22,0>, <"Koeln","Hamburg",22,0>, <"Koeln","Hannover",22,0>, <"Koeln","Stuttgart",22,0>, <"Koeln","Muenchen",22,0>, <"Koeln","Erlangen",22,0>, <"Koeln","Berlin",22,0>, <"Koeln","Essen",22,0>, <"Koeln","Frankfurt",22,0>, <"Koeln","IP",22,3>, <"Erlangen","Leipzig",22,0>, <"Erlangen","Hamburg",22,0>, <"Erlangen","Hannover",22,0>, <"Erlangen","Stuttgart",22,0>, <"Erlangen","Muenchen",22,0>, <"Erlangen","Koeln",22,0>, <"Erlangen","Berlin",22,0>, <"Erlangen","Essen",22,0>, <"Erlangen","Frankfurt",22,0>, <"Erlangen","IP",22,6>, <"Berlin","Leipzig",22,0>, <"Berlin","Hamburg",22,0>, <"Berlin","Hannover",22,0>, <"Berlin","Stuttgart",22,0>, <"Berlin","Muenchen",22,0>, <"Berlin","Koeln",22,0>, <"Berlin","Erlangen",22,0>, <"Berlin","Essen",22,0>, <"Berlin","Frankfurt",22,0>, <"Berlin","IP",22,6>, <"Essen","Leipzig",22,0>, <"Essen","Hamburg",22,0>, <"Essen","Hannover",22,0>, <"Essen","Stuttgart",22,0>, <"Essen","Muenchen",22,0>, <"Essen","Koeln",22,0>, <"Essen","Erlangen",22,0>, <"Essen","Berlin",22,0>, <"Essen","Frankfurt",22,0>, <"Essen","IP",22,2>, <"Frankfurt","Leipzig",22,0>, <"Frankfurt","Hamburg",22,0>, <"Frankfurt","Hannover",22,0>, <"Frankfurt","Stuttgart",22,0>, <"Frankfurt","Muenchen",22,0>, <"Frankfurt","Koeln",22,0>, <"Frankfurt","Erlangen",22,0>, <"Frankfurt","Berlin",22,0>, <"Frankfurt","Essen",22,0>, <"Frankfurt","IP",22,0>, <"IP","Leipzig",22,6>, <"IP","Hamburg",22,3>, <"IP","Hannover",22,0>, <"IP","Stuttgart",22,5>, <"IP","Muenchen",22,7>, <"IP","Koeln",22,3>, <"IP","Erlangen",22,6>, <"IP","Berlin",22,6>, <"IP","Essen",22,2>, <"IP","Frankfurt",22,0>};
Demands = {<"Leipzig","Hamburg",2,0>, <"Leipzig","Hannover",4,0>, <"Leipzig","Stuttgart",6,0>, <"Leipzig","Muenchen",8,0>, <"Leipzig","Koeln",10,0>, <"Leipzig","Erlangen",12,0>, <"Leipzig","Berlin",14,0>, <"Leipzig","Essen",16,0>, <"Leipzig","Frankfurt",18,0>, <"Leipzig","IP",20,0>, <"Hamburg","Leipzig",2,0>, <"Hamburg","Hannover",2,0>, <"Hamburg","Stuttgart",4,0>, <"Hamburg","Muenchen",6,0>, <"Hamburg","Koeln",8,0>, <"Hamburg","Erlangen",10,0>, <"Hamburg","Berlin",12,0>, <"Hamburg","Essen",14,0>, <"Hamburg","Frankfurt",16,0>, <"Hamburg","IP",18,0>, <"Hannover","Leipzig",4,0>, <"Hannover","Hamburg",2,0>, <"Hannover","Stuttgart",2,0>, <"Hannover","Muenchen",4,0>, <"Hannover","Koeln",6,0>, <"Hannover","Erlangen",8,0>, <"Hannover","Berlin",10,0>, <"Hannover","Essen",12,0>, <"Hannover","Frankfurt",14,0>, <"Hannover","IP",16,0>, <"Stuttgart","Leipzig",6,0>, <"Stuttgart","Hamburg",4,0>, <"Stuttgart","Hannover",2,0>, <"Stuttgart","Muenchen",2,0>, <"Stuttgart","Koeln",4,0>, <"Stuttgart","Erlangen",6,0>, <"Stuttgart","Berlin",8,0>, <"Stuttgart","Essen",10,0>, <"Stuttgart","Frankfurt",12,0>, <"Stuttgart","IP",14,0>, <"Muenchen","Leipzig",8,0>, <"Muenchen","Hamburg",6,0>, <"Muenchen","Hannover",4,0>, <"Muenchen","Stuttgart",2,0>, <"Muenchen","Koeln",2,0>, <"Muenchen","Erlangen",4,0>, <"Muenchen","Berlin",6,0>, <"Muenchen","Essen",8,0>, <"Muenchen","Frankfurt",10,0>, <"Muenchen","IP",12,0>, <"Koeln","Leipzig",10,0>, <"Koeln","Hamburg",8,0>, <"Koeln","Hannover",6,0>, <"Koeln","Stuttgart",4,0>, <"Koeln","Muenchen",2,0>, <"Koeln","Erlangen",2,0>, <"Koeln","Berlin",4,0>, <"Koeln","Essen",6,0>, <"Koeln","Frankfurt",8,0>, <"Koeln","IP",10,0>, <"Erlangen","Leipzig",12,0>, <"Erlangen","Hamburg",10,0>, <"Erlangen","Hannover",8,0>, <"Erlangen","Stuttgart",6,0>, <"Erlangen","Muenchen",4,0>, <"Erlangen","Koeln",2,0>, <"Erlangen","Berlin",2,0>, <"Erlangen","Essen",4,0>, <"Erlangen","Frankfurt",6,0>, <"Erlangen","IP",8,0>, <"Berlin","Leipzig",14,0>, <"Berlin","Hamburg",12,0>, <"Berlin","Hannover",10,0>, <"Berlin","Stuttgart",8,0>, <"Berlin","Muenchen",6,0>, <"Berlin","Koeln",4,0>, <"Berlin","Erlangen",2,0>, <"Berlin","Essen",2,0>, <"Berlin","Frankfurt",4,0>, <"Berlin","IP",6,0>, <"Essen","Leipzig",16,0>, <"Essen","Hamburg",14,0>, <"Essen","Hannover",12,0>, <"Essen","Stuttgart",10,0>, <"Essen","Muenchen",8,0>, <"Essen","Koeln",6,0>, <"Essen","Erlangen",4,0>, <"Essen","Berlin",2,0>, <"Essen","Frankfurt",2,0>, <"Essen","IP",4,0>, <"Frankfurt","Leipzig",18,0>, <"Frankfurt","Hamburg",16,0>, <"Frankfurt","Hannover",14,0>, <"Frankfurt","Stuttgart",12,0>, <"Frankfurt","Muenchen",10,0>, <"Frankfurt","Koeln",8,0>, <"Frankfurt","Erlangen",6,0>, <"Frankfurt","Berlin",4,0>, <"Frankfurt","Essen",2,0>, <"Frankfurt","IP",2,0>, <"IP","Leipzig",20,0>, <"IP","Hamburg",18,0>, <"IP","Hannover",16,0>, <"IP","Stuttgart",14,0>, <"IP","Muenchen",12,0>, <"IP","Koeln",10,0>, <"IP","Erlangen",8,0>, <"IP","Berlin",6,0>, <"IP","Essen",4,0>, <"IP","Frankfurt",2,0>};
